40
     7    95    56    62    98    66    47    95    63    17    43     4    58    89    50    92    67    76    56    69     2    26    23    46     3    38    93    37    40    67    86    59     7    19     1    35    31    54    14    88
     4     5     5     9     4     6     5     2     4     4     1     8     7     2    10     9     4     9     2     9     4     9     4     1     5     4     3     1     3     9     1     4     2     8     3     7     6     9     7     9
   266   139   686   373   572    37     0   376   716     0   558     0     0     0     0     0     0     0    63     0   473     0   819     0   316     0   634   151     0   574    52     0     0     0   796     0   665     0   140   401
